letting initialStacks = [27, 51, 29, 15, 24, 18, 2, 23, 1, 8, 30, 17, 13, 28, 16, 41, 20, 9, 6, 42, 31, 19, 33, 37, 40, 50, 4, 21, 10, 35, 26, 39, 48, 34, 32, 43, 44, 7, 45, 22, 12, 38, 49, 11, 25, 5, 14, 46, 3, 36, 47]
